TOUR_SECTION
21
96
7
62
118
92
17
54
28
127
75
172
100
199
193
22
186
144
6
94
64
102
99
101
111
104
117
57
119
98
42
83
86
11
194
33
136
46
56
149
188
88
170
124
26
81
198
116
29
80
79
82
32
69
14
60
171
148
18
114
156
1
23
37
106
167
134
109
50
3
97
135
110
184
126
130
177
19
147
10
53
145
200
159
65
179
140
70
153
195
107
58
52
44
12
168
59
175
125
183
30
132
137
73
187
151
182
71
163
103
84
4
165
90
68
16
155
13
150
158
180
196
5
85
139
25
128
40
197
192
162
189
143
141
164
166
123
67
113
178
161
173
2
115
131
138
191
112
35
39
72
120
121
38
146
142
95
105
93
27
185
169
87
78
89
157
24
34
129
190
15
77
20
91
74
61
41
152
154
48
8
160
108
174
49
181
55
36
45
122
43
63
176
51
31
133
76
66
9
47
-1
EOF